proyfinal/src/viki/013/experimentInOfficeAgust.take6.output/fa7b4de7-6bb0-4032-8158-9ce51c93a2a5.als.dat
{'cnf.clauses': '118081',
 'cnf.totvars': '69608',
 'conflict literals': '31',
 'conflicts': '15',
 'decisions': '5746',
 'memused.mb': '15.40',
 'outcome': 'UNSAT',
 'propagations': '28801',
 'restarts': '1',
 'solver.msecs': 33,
 'task.msecs': 89}
