proyfinal/src/viki/013/experimentInOfficeAgust.take6.output/fa7b4de7-6bb0-4032-8158-9ce51c93a2a5.als.out
Reading from standard input... Use '--help' for help.
============================[ Problem Statistics ]=============================
|                                                                             |
|  Number of variables:         69608                                         |
|  Number of clauses:          118081                                         |
|  Parse time:                   0.03 s                                       |
|                                                                             |
============================[ Search Statistics ]==============================
| Conflicts |          ORIGINAL         |          LEARNT          | Progress |
|           |    Vars  Clauses Literals |    Limit  Clauses Lit/Cl |          |
===============================================================================
===============================================================================
restarts              : 1
conflicts             : 15             (454 /sec)
decisions             : 5746           (0.00 % random) (173747 /sec)
propagations          : 28801          (870884 /sec)
conflict literals     : 31             (0.00 % deleted)
Memory used           : 15.40 MB
CPU time              : 0.033071 s

UNSATISFIABLE
